\* row_knapsack_problem *\
Minimize
knapsack: 3 row_0 + 5 row_1 + row_3 + 6 row_4 + 5 row_5 + 6 row_6 + 6 row_7
 + row_8 + 3 row_9
Subject To
sensitivity: 7 row_0 + 5 row_1 + 10 row_2 + 9 row_3 + 4 row_4 + 5 row_5
 + 4 row_6 + 4 row_7 + 9 row_8 + 7 row_9 >= 41.6
Binaries
row_0
row_1
row_2
row_3
row_4
row_5
row_6
row_7
row_8
row_9
End
